
variable        NAME index tcne
log             ${NAME}.log

variable	 a equal 31.303
variable	 b equal 31.303
variable	 c equal 31.303
variable	 alpha equal 90.0
variable	 beta equal 90.0
variable	 gamma equal 90.0

variable        xv equal v_a
variable        xyv equal v_b*cos(v_gamma*PI/180)
variable        yv equal sqrt(v_b*v_b-v_xyv*v_xyv)
variable        xzv equal v_c*cos(v_beta*PI/180)
variable        yzv equal (v_b*v_c*cos(v_alpha*PI/180)-v_xyv*v_xzv)/v_yv
variable        zv equal sqrt(v_c*v_c-v_xzv*v_xzv-v_yzv*v_yzv)

units           real
special_bonds   lj 0.0 0.0 0.5 coul 0.0 0.0 0.5
atom_style      full
pair_style	hybrid/overlay lj/cut 12.0 coul/long 12.0 

bond_style	 harmonic
dihedral_style	 opls
angle_style	 harmonic

read_restart    restart.tcne.2.4800000
